p cnf 14 23
-14 13 5 0
-14 13 3 0
14 -12 9 0
-14 -12 -1 0
14 10 -4 0
-14 -10 -3 0
14 -10 1 0
-14 9 2 0
-13 8 -3 0
-12 -10 5 0
-12 5 -1 0
11 10 -5 0
11 9 5 0
-11 8 3 0
-11 7 -2 0
-10 9 4 0
10 9 1 0
10 -8 5 0
9 -7 -3 0
9 -7 1 0
9 3 -2 0
8 6 -3 0
7 6 2 0
